
%FILE DATA:	Soccer Computational Problem for MiniZinc Models	%
%AUTHOR:	Jack Wall	%
%CONTACT:  	116397063@umail.ucc.ie			%
%LAST UPDATE:	03/03/2020, 12:29:48						%
%DESCRIPTION: 	50 games played with 40 games left				%


n=10; %number of teams

%Games to play
games=[|8,3|7,8|8,6|5,6|9,10|1,7|2,1|7,5|6,4|4,2|1,5|6,7|2,10|2,8|8,2|3,7|2,5|4,9|3,1|10,2|3,9|3,10|9,1|5,9|1,9|5,2|7,6|4,10|9,8|6,10|8,5|1,2|9,4|8,7|8,10|2,9|1,4|6,9|6,2|5,3|];

%Initial points
iPoints=[16,7,20,20,11,13,15,11,12,14];

%POSITION CONSTRAINTS
% [|teamID, operator, position|...]
% operators index:
%  1 for =  operator
%  2 for >  operator
%  3 for >= operator
%  4 for <  operator
%  5 for <= operator
positionConstraints=[|1,4,2|7,2,1|10,3,3|];